\ENCODING=ISO-8859-1
\Problem name: ilog.cplex

Minimize
 obj1:
Subject To
 CI1e0j0: x0_1_0 + x1_0_0 + x0_2_0 + x2_0_0 + x0_3_0 + x3_0_0 + x0_4_0 + x4_0_0
          + x0_5_0 + x5_0_0  = 1
 CI1e1j0: x0_1_0 + x1_0_0 + x1_2_0 + x2_1_0 + x1_3_0 + x3_1_0 + x1_4_0 + x4_1_0
          + x1_5_0 + x5_1_0  = 1
 CI1e2j0: x0_2_0 + x2_0_0 + x1_2_0 + x2_1_0 + x2_3_0 + x3_2_0 + x2_4_0 + x4_2_0
          + x2_5_0 + x5_2_0  = 1
 CI1e3j0: x0_3_0 + x3_0_0 + x1_3_0 + x3_1_0 + x2_3_0 + x3_2_0 + x3_4_0 + x4_3_0
          + x3_5_0 + x5_3_0  = 1
 CI1e4j0: x0_4_0 + x4_0_0 + x1_4_0 + x4_1_0 + x2_4_0 + x4_2_0 + x3_4_0 + x4_3_0
          + x4_5_0 + x5_4_0  = 1
 CI1e5j0: x0_5_0 + x5_0_0 + x1_5_0 + x5_1_0 + x2_5_0 + x5_2_0 + x3_5_0 + x5_3_0
          + x4_5_0 + x5_4_0  = 1
 CI1e0j1: x0_1_1 + x1_0_1 + x0_2_1 + x2_0_1 + x0_3_1 + x3_0_1 + x0_4_1 + x4_0_1
          + x0_5_1 + x5_0_1  = 1
 CI1e1j1: x0_1_1 + x1_0_1 + x1_2_1 + x2_1_1 + x1_3_1 + x3_1_1 + x1_4_1 + x4_1_1
          + x1_5_1 + x5_1_1  = 1
 CI1e2j1: x0_2_1 + x2_0_1 + x1_2_1 + x2_1_1 + x2_3_1 + x3_2_1 + x2_4_1 + x4_2_1
          + x2_5_1 + x5_2_1  = 1
 CI1e3j1: x0_3_1 + x3_0_1 + x1_3_1 + x3_1_1 + x2_3_1 + x3_2_1 + x3_4_1 + x4_3_1
          + x3_5_1 + x5_3_1  = 1
 CI1e4j1: x0_4_1 + x4_0_1 + x1_4_1 + x4_1_1 + x2_4_1 + x4_2_1 + x3_4_1 + x4_3_1
          + x4_5_1 + x5_4_1  = 1
 CI1e5j1: x0_5_1 + x5_0_1 + x1_5_1 + x5_1_1 + x2_5_1 + x5_2_1 + x3_5_1 + x5_3_1
          + x4_5_1 + x5_4_1  = 1
 CI1e0j2: x0_1_2 + x1_0_2 + x0_2_2 + x2_0_2 + x0_3_2 + x3_0_2 + x0_4_2 + x4_0_2
          + x0_5_2 + x5_0_2  = 1
 CI1e1j2: x0_1_2 + x1_0_2 + x1_2_2 + x2_1_2 + x1_3_2 + x3_1_2 + x1_4_2 + x4_1_2
          + x1_5_2 + x5_1_2  = 1
 CI1e2j2: x0_2_2 + x2_0_2 + x1_2_2 + x2_1_2 + x2_3_2 + x3_2_2 + x2_4_2 + x4_2_2
          + x2_5_2 + x5_2_2  = 1
 CI1e3j2: x0_3_2 + x3_0_2 + x1_3_2 + x3_1_2 + x2_3_2 + x3_2_2 + x3_4_2 + x4_3_2
          + x3_5_2 + x5_3_2  = 1
 CI1e4j2: x0_4_2 + x4_0_2 + x1_4_2 + x4_1_2 + x2_4_2 + x4_2_2 + x3_4_2 + x4_3_2
          + x4_5_2 + x5_4_2  = 1
 CI1e5j2: x0_5_2 + x5_0_2 + x1_5_2 + x5_1_2 + x2_5_2 + x5_2_2 + x3_5_2 + x5_3_2
          + x4_5_2 + x5_4_2  = 1
 CI1e0j3: x0_1_3 + x1_0_3 + x0_2_3 + x2_0_3 + x0_3_3 + x3_0_3 + x0_4_3 + x4_0_3
          + x0_5_3 + x5_0_3  = 1
 CI1e1j3: x0_1_3 + x1_0_3 + x1_2_3 + x2_1_3 + x1_3_3 + x3_1_3 + x1_4_3 + x4_1_3
          + x1_5_3 + x5_1_3  = 1
 CI1e2j3: x0_2_3 + x2_0_3 + x1_2_3 + x2_1_3 + x2_3_3 + x3_2_3 + x2_4_3 + x4_2_3
          + x2_5_3 + x5_2_3  = 1
 CI1e3j3: x0_3_3 + x3_0_3 + x1_3_3 + x3_1_3 + x2_3_3 + x3_2_3 + x3_4_3 + x4_3_3
          + x3_5_3 + x5_3_3  = 1
 CI1e4j3: x0_4_3 + x4_0_3 + x1_4_3 + x4_1_3 + x2_4_3 + x4_2_3 + x3_4_3 + x4_3_3
          + x4_5_3 + x5_4_3  = 1
 CI1e5j3: x0_5_3 + x5_0_3 + x1_5_3 + x5_1_3 + x2_5_3 + x5_2_3 + x3_5_3 + x5_3_3
          + x4_5_3 + x5_4_3  = 1
 CI1e0j4: x0_1_4 + x1_0_4 + x0_2_4 + x2_0_4 + x0_3_4 + x3_0_4 + x0_4_4 + x4_0_4
          + x0_5_4 + x5_0_4  = 1
 CI1e1j4: x0_1_4 + x1_0_4 + x1_2_4 + x2_1_4 + x1_3_4 + x3_1_4 + x1_4_4 + x4_1_4
          + x1_5_4 + x5_1_4  = 1
 CI1e2j4: x0_2_4 + x2_0_4 + x1_2_4 + x2_1_4 + x2_3_4 + x3_2_4 + x2_4_4 + x4_2_4
          + x2_5_4 + x5_2_4  = 1
 CI1e3j4: x0_3_4 + x3_0_4 + x1_3_4 + x3_1_4 + x2_3_4 + x3_2_4 + x3_4_4 + x4_3_4
          + x3_5_4 + x5_3_4  = 1
 CI1e4j4: x0_4_4 + x4_0_4 + x1_4_4 + x4_1_4 + x2_4_4 + x4_2_4 + x3_4_4 + x4_3_4
          + x4_5_4 + x5_4_4  = 1
 CI1e5j4: x0_5_4 + x5_0_4 + x1_5_4 + x5_1_4 + x2_5_4 + x5_2_4 + x3_5_4 + x5_3_4
          + x4_5_4 + x5_4_4  = 1
 CI1e0j5: x0_1_5 + x1_0_5 + x0_2_5 + x2_0_5 + x0_3_5 + x3_0_5 + x0_4_5 + x4_0_5
          + x0_5_5 + x5_0_5  = 1
 CI1e1j5: x0_1_5 + x1_0_5 + x1_2_5 + x2_1_5 + x1_3_5 + x3_1_5 + x1_4_5 + x4_1_5
          + x1_5_5 + x5_1_5  = 1
 CI1e2j5: x0_2_5 + x2_0_5 + x1_2_5 + x2_1_5 + x2_3_5 + x3_2_5 + x2_4_5 + x4_2_5
          + x2_5_5 + x5_2_5  = 1
 CI1e3j5: x0_3_5 + x3_0_5 + x1_3_5 + x3_1_5 + x2_3_5 + x3_2_5 + x3_4_5 + x4_3_5
          + x3_5_5 + x5_3_5  = 1
 CI1e4j5: x0_4_5 + x4_0_5 + x1_4_5 + x4_1_5 + x2_4_5 + x4_2_5 + x3_4_5 + x4_3_5
          + x4_5_5 + x5_4_5  = 1
 CI1e5j5: x0_5_5 + x5_0_5 + x1_5_5 + x5_1_5 + x2_5_5 + x5_2_5 + x3_5_5 + x5_3_5
          + x4_5_5 + x5_4_5  = 1
 CI1e0j6: x0_1_6 + x1_0_6 + x0_2_6 + x2_0_6 + x0_3_6 + x3_0_6 + x0_4_6 + x4_0_6
          + x0_5_6 + x5_0_6  = 1
 CI1e1j6: x0_1_6 + x1_0_6 + x1_2_6 + x2_1_6 + x1_3_6 + x3_1_6 + x1_4_6 + x4_1_6
          + x1_5_6 + x5_1_6  = 1
 CI1e2j6: x0_2_6 + x2_0_6 + x1_2_6 + x2_1_6 + x2_3_6 + x3_2_6 + x2_4_6 + x4_2_6
          + x2_5_6 + x5_2_6  = 1
 CI1e3j6: x0_3_6 + x3_0_6 + x1_3_6 + x3_1_6 + x2_3_6 + x3_2_6 + x3_4_6 + x4_3_6
          + x3_5_6 + x5_3_6  = 1
 CI1e4j6: x0_4_6 + x4_0_6 + x1_4_6 + x4_1_6 + x2_4_6 + x4_2_6 + x3_4_6 + x4_3_6
          + x4_5_6 + x5_4_6  = 1
 CI1e5j6: x0_5_6 + x5_0_6 + x1_5_6 + x5_1_6 + x2_5_6 + x5_2_6 + x3_5_6 + x5_3_6
          + x4_5_6 + x5_4_6  = 1
 CI1e0j7: x0_1_7 + x1_0_7 + x0_2_7 + x2_0_7 + x0_3_7 + x3_0_7 + x0_4_7 + x4_0_7
          + x0_5_7 + x5_0_7  = 1
 CI1e1j7: x0_1_7 + x1_0_7 + x1_2_7 + x2_1_7 + x1_3_7 + x3_1_7 + x1_4_7 + x4_1_7
          + x1_5_7 + x5_1_7  = 1
 CI1e2j7: x0_2_7 + x2_0_7 + x1_2_7 + x2_1_7 + x2_3_7 + x3_2_7 + x2_4_7 + x4_2_7
          + x2_5_7 + x5_2_7  = 1
 CI1e3j7: x0_3_7 + x3_0_7 + x1_3_7 + x3_1_7 + x2_3_7 + x3_2_7 + x3_4_7 + x4_3_7
          + x3_5_7 + x5_3_7  = 1
 CI1e4j7: x0_4_7 + x4_0_7 + x1_4_7 + x4_1_7 + x2_4_7 + x4_2_7 + x3_4_7 + x4_3_7
          + x4_5_7 + x5_4_7  = 1
 CI1e5j7: x0_5_7 + x5_0_7 + x1_5_7 + x5_1_7 + x2_5_7 + x5_2_7 + x3_5_7 + x5_3_7
          + x4_5_7 + x5_4_7  = 1
 CI1e0j8: x0_1_8 + x1_0_8 + x0_2_8 + x2_0_8 + x0_3_8 + x3_0_8 + x0_4_8 + x4_0_8
          + x0_5_8 + x5_0_8  = 1
 CI1e1j8: x0_1_8 + x1_0_8 + x1_2_8 + x2_1_8 + x1_3_8 + x3_1_8 + x1_4_8 + x4_1_8
          + x1_5_8 + x5_1_8  = 1
 CI1e2j8: x0_2_8 + x2_0_8 + x1_2_8 + x2_1_8 + x2_3_8 + x3_2_8 + x2_4_8 + x4_2_8
          + x2_5_8 + x5_2_8  = 1
 CI1e3j8: x0_3_8 + x3_0_8 + x1_3_8 + x3_1_8 + x2_3_8 + x3_2_8 + x3_4_8 + x4_3_8
          + x3_5_8 + x5_3_8  = 1
 CI1e4j8: x0_4_8 + x4_0_8 + x1_4_8 + x4_1_8 + x2_4_8 + x4_2_8 + x3_4_8 + x4_3_8
          + x4_5_8 + x5_4_8  = 1
 CI1e5j8: x0_5_8 + x5_0_8 + x1_5_8 + x5_1_8 + x2_5_8 + x5_2_8 + x3_5_8 + x5_3_8
          + x4_5_8 + x5_4_8  = 1
 CI1e0j9: x0_1_9 + x1_0_9 + x0_2_9 + x2_0_9 + x0_3_9 + x3_0_9 + x0_4_9 + x4_0_9
          + x0_5_9 + x5_0_9  = 1
 CI1e1j9: x0_1_9 + x1_0_9 + x1_2_9 + x2_1_9 + x1_3_9 + x3_1_9 + x1_4_9 + x4_1_9
          + x1_5_9 + x5_1_9  = 1
 CI1e2j9: x0_2_9 + x2_0_9 + x1_2_9 + x2_1_9 + x2_3_9 + x3_2_9 + x2_4_9 + x4_2_9
          + x2_5_9 + x5_2_9  = 1
 CI1e3j9: x0_3_9 + x3_0_9 + x1_3_9 + x3_1_9 + x2_3_9 + x3_2_9 + x3_4_9 + x4_3_9
          + x3_5_9 + x5_3_9  = 1
 CI1e4j9: x0_4_9 + x4_0_9 + x1_4_9 + x4_1_9 + x2_4_9 + x4_2_9 + x3_4_9 + x4_3_9
          + x4_5_9 + x5_4_9  = 1
 CI1e5j9: x0_5_9 + x5_0_9 + x1_5_9 + x5_1_9 + x2_5_9 + x5_2_9 + x3_5_9 + x5_3_9
          + x4_5_9 + x5_4_9  = 1
 CI2d0e0: x0_0_0 + x0_0_1 + x0_0_2 + x0_0_3 + x0_0_4 + x0_0_5 + x0_0_6 + x0_0_7
          + x0_0_8 + x0_0_9  = 0
 CI2d0e1: x0_1_0 + x0_1_1 + x0_1_2 + x0_1_3 + x0_1_4 + x0_1_5 + x0_1_6 + x0_1_7
          + x0_1_8 + x0_1_9  = 1
 CI2d0e2: x0_2_0 + x0_2_1 + x0_2_2 + x0_2_3 + x0_2_4 + x0_2_5 + x0_2_6 + x0_2_7
          + x0_2_8 + x0_2_9  = 1
 CI2d0e3: x0_3_0 + x0_3_1 + x0_3_2 + x0_3_3 + x0_3_4 + x0_3_5 + x0_3_6 + x0_3_7
          + x0_3_8 + x0_3_9  = 1
 CI2d0e4: x0_4_0 + x0_4_1 + x0_4_2 + x0_4_3 + x0_4_4 + x0_4_5 + x0_4_6 + x0_4_7
          + x0_4_8 + x0_4_9  = 1
 CI2d0e5: x0_5_0 + x0_5_1 + x0_5_2 + x0_5_3 + x0_5_4 + x0_5_5 + x0_5_6 + x0_5_7
          + x0_5_8 + x0_5_9  = 1
 CI2d1e0: x1_0_0 + x1_0_1 + x1_0_2 + x1_0_3 + x1_0_4 + x1_0_5 + x1_0_6 + x1_0_7
          + x1_0_8 + x1_0_9  = 1
 CI2d1e1: x1_1_0 + x1_1_1 + x1_1_2 + x1_1_3 + x1_1_4 + x1_1_5 + x1_1_6 + x1_1_7
          + x1_1_8 + x1_1_9  = 0
 CI2d1e2: x1_2_0 + x1_2_1 + x1_2_2 + x1_2_3 + x1_2_4 + x1_2_5 + x1_2_6 + x1_2_7
          + x1_2_8 + x1_2_9  = 1
 CI2d1e3: x1_3_0 + x1_3_1 + x1_3_2 + x1_3_3 + x1_3_4 + x1_3_5 + x1_3_6 + x1_3_7
          + x1_3_8 + x1_3_9  = 1
 CI2d1e4: x1_4_0 + x1_4_1 + x1_4_2 + x1_4_3 + x1_4_4 + x1_4_5 + x1_4_6 + x1_4_7
          + x1_4_8 + x1_4_9  = 1
 CI2d1e5: x1_5_0 + x1_5_1 + x1_5_2 + x1_5_3 + x1_5_4 + x1_5_5 + x1_5_6 + x1_5_7
          + x1_5_8 + x1_5_9  = 1
 CI2d2e0: x2_0_0 + x2_0_1 + x2_0_2 + x2_0_3 + x2_0_4 + x2_0_5 + x2_0_6 + x2_0_7
          + x2_0_8 + x2_0_9  = 1
 CI2d2e1: x2_1_0 + x2_1_1 + x2_1_2 + x2_1_3 + x2_1_4 + x2_1_5 + x2_1_6 + x2_1_7
          + x2_1_8 + x2_1_9  = 1
 CI2d2e2: x2_2_0 + x2_2_1 + x2_2_2 + x2_2_3 + x2_2_4 + x2_2_5 + x2_2_6 + x2_2_7
          + x2_2_8 + x2_2_9  = 0
 CI2d2e3: x2_3_0 + x2_3_1 + x2_3_2 + x2_3_3 + x2_3_4 + x2_3_5 + x2_3_6 + x2_3_7
          + x2_3_8 + x2_3_9  = 1
 CI2d2e4: x2_4_0 + x2_4_1 + x2_4_2 + x2_4_3 + x2_4_4 + x2_4_5 + x2_4_6 + x2_4_7
          + x2_4_8 + x2_4_9  = 1
 CI2d2e5: x2_5_0 + x2_5_1 + x2_5_2 + x2_5_3 + x2_5_4 + x2_5_5 + x2_5_6 + x2_5_7
          + x2_5_8 + x2_5_9  = 1
 CI2d3e0: x3_0_0 + x3_0_1 + x3_0_2 + x3_0_3 + x3_0_4 + x3_0_5 + x3_0_6 + x3_0_7
          + x3_0_8 + x3_0_9  = 1
 CI2d3e1: x3_1_0 + x3_1_1 + x3_1_2 + x3_1_3 + x3_1_4 + x3_1_5 + x3_1_6 + x3_1_7
          + x3_1_8 + x3_1_9  = 1
 CI2d3e2: x3_2_0 + x3_2_1 + x3_2_2 + x3_2_3 + x3_2_4 + x3_2_5 + x3_2_6 + x3_2_7
          + x3_2_8 + x3_2_9  = 1
 CI2d3e3: x3_3_0 + x3_3_1 + x3_3_2 + x3_3_3 + x3_3_4 + x3_3_5 + x3_3_6 + x3_3_7
          + x3_3_8 + x3_3_9  = 0
 CI2d3e4: x3_4_0 + x3_4_1 + x3_4_2 + x3_4_3 + x3_4_4 + x3_4_5 + x3_4_6 + x3_4_7
          + x3_4_8 + x3_4_9  = 1
 CI2d3e5: x3_5_0 + x3_5_1 + x3_5_2 + x3_5_3 + x3_5_4 + x3_5_5 + x3_5_6 + x3_5_7
          + x3_5_8 + x3_5_9  = 1
 CI2d4e0: x4_0_0 + x4_0_1 + x4_0_2 + x4_0_3 + x4_0_4 + x4_0_5 + x4_0_6 + x4_0_7
          + x4_0_8 + x4_0_9  = 1
 CI2d4e1: x4_1_0 + x4_1_1 + x4_1_2 + x4_1_3 + x4_1_4 + x4_1_5 + x4_1_6 + x4_1_7
          + x4_1_8 + x4_1_9  = 1
 CI2d4e2: x4_2_0 + x4_2_1 + x4_2_2 + x4_2_3 + x4_2_4 + x4_2_5 + x4_2_6 + x4_2_7
          + x4_2_8 + x4_2_9  = 1
 CI2d4e3: x4_3_0 + x4_3_1 + x4_3_2 + x4_3_3 + x4_3_4 + x4_3_5 + x4_3_6 + x4_3_7
          + x4_3_8 + x4_3_9  = 1
 CI2d4e4: x4_4_0 + x4_4_1 + x4_4_2 + x4_4_3 + x4_4_4 + x4_4_5 + x4_4_6 + x4_4_7
          + x4_4_8 + x4_4_9  = 0
 CI2d4e5: x4_5_0 + x4_5_1 + x4_5_2 + x4_5_3 + x4_5_4 + x4_5_5 + x4_5_6 + x4_5_7
          + x4_5_8 + x4_5_9  = 1
 CI2d5e0: x5_0_0 + x5_0_1 + x5_0_2 + x5_0_3 + x5_0_4 + x5_0_5 + x5_0_6 + x5_0_7
          + x5_0_8 + x5_0_9  = 1
 CI2d5e1: x5_1_0 + x5_1_1 + x5_1_2 + x5_1_3 + x5_1_4 + x5_1_5 + x5_1_6 + x5_1_7
          + x5_1_8 + x5_1_9  = 1
 CI2d5e2: x5_2_0 + x5_2_1 + x5_2_2 + x5_2_3 + x5_2_4 + x5_2_5 + x5_2_6 + x5_2_7
          + x5_2_8 + x5_2_9  = 1
 CI2d5e3: x5_3_0 + x5_3_1 + x5_3_2 + x5_3_3 + x5_3_4 + x5_3_5 + x5_3_6 + x5_3_7
          + x5_3_8 + x5_3_9  = 1
 CI2d5e4: x5_4_0 + x5_4_1 + x5_4_2 + x5_4_3 + x5_4_4 + x5_4_5 + x5_4_6 + x5_4_7
          + x5_4_8 + x5_4_9  = 1
 CI2d5e5: x5_5_0 + x5_5_1 + x5_5_2 + x5_5_3 + x5_5_4 + x5_5_5 + x5_5_6 + x5_5_7
          + x5_5_8 + x5_5_9  = 0
 CI3d0e1: x0_1_0 + x1_0_0 + x0_1_1 + x1_0_1 + x0_1_2 + x1_0_2 + x0_1_3 + x1_0_3
          + x0_1_4 + x1_0_4  = 1
 CI3d0e2: x0_2_0 + x2_0_0 + x0_2_1 + x2_0_1 + x0_2_2 + x2_0_2 + x0_2_3 + x2_0_3
          + x0_2_4 + x2_0_4  = 1
 CI3d0e3: x0_3_0 + x3_0_0 + x0_3_1 + x3_0_1 + x0_3_2 + x3_0_2 + x0_3_3 + x3_0_3
          + x0_3_4 + x3_0_4  = 1
 CI3d0e4: x0_4_0 + x4_0_0 + x0_4_1 + x4_0_1 + x0_4_2 + x4_0_2 + x0_4_3 + x4_0_3
          + x0_4_4 + x4_0_4  = 1
 CI3d0e5: x0_5_0 + x5_0_0 + x0_5_1 + x5_0_1 + x0_5_2 + x5_0_2 + x0_5_3 + x5_0_3
          + x0_5_4 + x5_0_4  = 1
 CI3d1e0: x0_1_0 + x1_0_0 + x0_1_1 + x1_0_1 + x0_1_2 + x1_0_2 + x0_1_3 + x1_0_3
          + x0_1_4 + x1_0_4  = 1
 CI3d1e2: x1_2_0 + x2_1_0 + x1_2_1 + x2_1_1 + x1_2_2 + x2_1_2 + x1_2_3 + x2_1_3
          + x1_2_4 + x2_1_4  = 1
 CI3d1e3: x1_3_0 + x3_1_0 + x1_3_1 + x3_1_1 + x1_3_2 + x3_1_2 + x1_3_3 + x3_1_3
          + x1_3_4 + x3_1_4  = 1
 CI3d1e4: x1_4_0 + x4_1_0 + x1_4_1 + x4_1_1 + x1_4_2 + x4_1_2 + x1_4_3 + x4_1_3
          + x1_4_4 + x4_1_4  = 1
 CI3d1e5: x1_5_0 + x5_1_0 + x1_5_1 + x5_1_1 + x1_5_2 + x5_1_2 + x1_5_3 + x5_1_3
          + x1_5_4 + x5_1_4  = 1
 CI3d2e0: x0_2_0 + x2_0_0 + x0_2_1 + x2_0_1 + x0_2_2 + x2_0_2 + x0_2_3 + x2_0_3
          + x0_2_4 + x2_0_4  = 1
 CI3d2e1: x1_2_0 + x2_1_0 + x1_2_1 + x2_1_1 + x1_2_2 + x2_1_2 + x1_2_3 + x2_1_3
          + x1_2_4 + x2_1_4  = 1
 CI3d2e3: x2_3_0 + x3_2_0 + x2_3_1 + x3_2_1 + x2_3_2 + x3_2_2 + x2_3_3 + x3_2_3
          + x2_3_4 + x3_2_4  = 1
 CI3d2e4: x2_4_0 + x4_2_0 + x2_4_1 + x4_2_1 + x2_4_2 + x4_2_2 + x2_4_3 + x4_2_3
          + x2_4_4 + x4_2_4  = 1
 CI3d2e5: x2_5_0 + x5_2_0 + x2_5_1 + x5_2_1 + x2_5_2 + x5_2_2 + x2_5_3 + x5_2_3
          + x2_5_4 + x5_2_4  = 1
 CI3d3e0: x0_3_0 + x3_0_0 + x0_3_1 + x3_0_1 + x0_3_2 + x3_0_2 + x0_3_3 + x3_0_3
          + x0_3_4 + x3_0_4  = 1
 CI3d3e1: x1_3_0 + x3_1_0 + x1_3_1 + x3_1_1 + x1_3_2 + x3_1_2 + x1_3_3 + x3_1_3
          + x1_3_4 + x3_1_4  = 1
 CI3d3e2: x2_3_0 + x3_2_0 + x2_3_1 + x3_2_1 + x2_3_2 + x3_2_2 + x2_3_3 + x3_2_3
          + x2_3_4 + x3_2_4  = 1
 CI3d3e4: x3_4_0 + x4_3_0 + x3_4_1 + x4_3_1 + x3_4_2 + x4_3_2 + x3_4_3 + x4_3_3
          + x3_4_4 + x4_3_4  = 1
 CI3d3e5: x3_5_0 + x5_3_0 + x3_5_1 + x5_3_1 + x3_5_2 + x5_3_2 + x3_5_3 + x5_3_3
          + x3_5_4 + x5_3_4  = 1
 CI3d4e0: x0_4_0 + x4_0_0 + x0_4_1 + x4_0_1 + x0_4_2 + x4_0_2 + x0_4_3 + x4_0_3
          + x0_4_4 + x4_0_4  = 1
 CI3d4e1: x1_4_0 + x4_1_0 + x1_4_1 + x4_1_1 + x1_4_2 + x4_1_2 + x1_4_3 + x4_1_3
          + x1_4_4 + x4_1_4  = 1
 CI3d4e2: x2_4_0 + x4_2_0 + x2_4_1 + x4_2_1 + x2_4_2 + x4_2_2 + x2_4_3 + x4_2_3
          + x2_4_4 + x4_2_4  = 1
 CI3d4e3: x3_4_0 + x4_3_0 + x3_4_1 + x4_3_1 + x3_4_2 + x4_3_2 + x3_4_3 + x4_3_3
          + x3_4_4 + x4_3_4  = 1
 CI3d4e5: x4_5_0 + x5_4_0 + x4_5_1 + x5_4_1 + x4_5_2 + x5_4_2 + x4_5_3 + x5_4_3
          + x4_5_4 + x5_4_4  = 1
 CI3d5e0: x0_5_0 + x5_0_0 + x0_5_1 + x5_0_1 + x0_5_2 + x5_0_2 + x0_5_3 + x5_0_3
          + x0_5_4 + x5_0_4  = 1
 CI3d5e1: x1_5_0 + x5_1_0 + x1_5_1 + x5_1_1 + x1_5_2 + x5_1_2 + x1_5_3 + x5_1_3
          + x1_5_4 + x5_1_4  = 1
 CI3d5e2: x2_5_0 + x5_2_0 + x2_5_1 + x5_2_1 + x2_5_2 + x5_2_2 + x2_5_3 + x5_2_3
          + x2_5_4 + x5_2_4  = 1
 CI3d5e3: x3_5_0 + x5_3_0 + x3_5_1 + x5_3_1 + x3_5_2 + x5_3_2 + x3_5_3 + x5_3_3
          + x3_5_4 + x5_3_4  = 1
 CI3d5e4: x4_5_0 + x5_4_0 + x4_5_1 + x5_4_1 + x4_5_2 + x5_4_2 + x4_5_3 + x5_4_3
          + x4_5_4 + x5_4_4  = 1
Bounds
 0 <= x0_1_0 <= 1
 0 <= x1_0_0 <= 1
 0 <= x0_2_0 <= 1
 0 <= x2_0_0 <= 1
 0 <= x0_3_0 <= 1
 0 <= x3_0_0 <= 1
 0 <= x0_4_0 <= 1
 0 <= x4_0_0 <= 1
 0 <= x0_5_0 <= 1
 0 <= x5_0_0 <= 1
 0 <= x1_2_0 <= 1
 0 <= x2_1_0 <= 1
 0 <= x1_3_0 <= 1
 0 <= x3_1_0 <= 1
 0 <= x1_4_0 <= 1
 0 <= x4_1_0 <= 1
 0 <= x1_5_0 <= 1
 0 <= x5_1_0 <= 1
 0 <= x2_3_0 <= 1
 0 <= x3_2_0 <= 1
 0 <= x2_4_0 <= 1
 0 <= x4_2_0 <= 1
 0 <= x2_5_0 <= 1
 0 <= x5_2_0 <= 1
 0 <= x3_4_0 <= 1
 0 <= x4_3_0 <= 1
 0 <= x3_5_0 <= 1
 0 <= x5_3_0 <= 1
 0 <= x4_5_0 <= 1
 0 <= x5_4_0 <= 1
 0 <= x0_1_1 <= 1
 0 <= x1_0_1 <= 1
 0 <= x0_2_1 <= 1
 0 <= x2_0_1 <= 1
 0 <= x0_3_1 <= 1
 0 <= x3_0_1 <= 1
 0 <= x0_4_1 <= 1
 0 <= x4_0_1 <= 1
 0 <= x0_5_1 <= 1
 0 <= x5_0_1 <= 1
 0 <= x1_2_1 <= 1
 0 <= x2_1_1 <= 1
 0 <= x1_3_1 <= 1
 0 <= x3_1_1 <= 1
 0 <= x1_4_1 <= 1
 0 <= x4_1_1 <= 1
 0 <= x1_5_1 <= 1
 0 <= x5_1_1 <= 1
 0 <= x2_3_1 <= 1
 0 <= x3_2_1 <= 1
 0 <= x2_4_1 <= 1
 0 <= x4_2_1 <= 1
 0 <= x2_5_1 <= 1
 0 <= x5_2_1 <= 1
 0 <= x3_4_1 <= 1
 0 <= x4_3_1 <= 1
 0 <= x3_5_1 <= 1
 0 <= x5_3_1 <= 1
 0 <= x4_5_1 <= 1
 0 <= x5_4_1 <= 1
 0 <= x0_1_2 <= 1
 0 <= x1_0_2 <= 1
 0 <= x0_2_2 <= 1
 0 <= x2_0_2 <= 1
 0 <= x0_3_2 <= 1
 0 <= x3_0_2 <= 1
 0 <= x0_4_2 <= 1
 0 <= x4_0_2 <= 1
 0 <= x0_5_2 <= 1
 0 <= x5_0_2 <= 1
 0 <= x1_2_2 <= 1
 0 <= x2_1_2 <= 1
 0 <= x1_3_2 <= 1
 0 <= x3_1_2 <= 1
 0 <= x1_4_2 <= 1
 0 <= x4_1_2 <= 1
 0 <= x1_5_2 <= 1
 0 <= x5_1_2 <= 1
 0 <= x2_3_2 <= 1
 0 <= x3_2_2 <= 1
 0 <= x2_4_2 <= 1
 0 <= x4_2_2 <= 1
 0 <= x2_5_2 <= 1
 0 <= x5_2_2 <= 1
 0 <= x3_4_2 <= 1
 0 <= x4_3_2 <= 1
 0 <= x3_5_2 <= 1
 0 <= x5_3_2 <= 1
 0 <= x4_5_2 <= 1
 0 <= x5_4_2 <= 1
 0 <= x0_1_3 <= 1
 0 <= x1_0_3 <= 1
 0 <= x0_2_3 <= 1
 0 <= x2_0_3 <= 1
 0 <= x0_3_3 <= 1
 0 <= x3_0_3 <= 1
 0 <= x0_4_3 <= 1
 0 <= x4_0_3 <= 1
 0 <= x0_5_3 <= 1
 0 <= x5_0_3 <= 1
 0 <= x1_2_3 <= 1
 0 <= x2_1_3 <= 1
 0 <= x1_3_3 <= 1
 0 <= x3_1_3 <= 1
 0 <= x1_4_3 <= 1
 0 <= x4_1_3 <= 1
 0 <= x1_5_3 <= 1
 0 <= x5_1_3 <= 1
 0 <= x2_3_3 <= 1
 0 <= x3_2_3 <= 1
 0 <= x2_4_3 <= 1
 0 <= x4_2_3 <= 1
 0 <= x2_5_3 <= 1
 0 <= x5_2_3 <= 1
 0 <= x3_4_3 <= 1
 0 <= x4_3_3 <= 1
 0 <= x3_5_3 <= 1
 0 <= x5_3_3 <= 1
 0 <= x4_5_3 <= 1
 0 <= x5_4_3 <= 1
 0 <= x0_1_4 <= 1
 0 <= x1_0_4 <= 1
 0 <= x0_2_4 <= 1
 0 <= x2_0_4 <= 1
 0 <= x0_3_4 <= 1
 0 <= x3_0_4 <= 1
 0 <= x0_4_4 <= 1
 0 <= x4_0_4 <= 1
 0 <= x0_5_4 <= 1
 0 <= x5_0_4 <= 1
 0 <= x1_2_4 <= 1
 0 <= x2_1_4 <= 1
 0 <= x1_3_4 <= 1
 0 <= x3_1_4 <= 1
 0 <= x1_4_4 <= 1
 0 <= x4_1_4 <= 1
 0 <= x1_5_4 <= 1
 0 <= x5_1_4 <= 1
 0 <= x2_3_4 <= 1
 0 <= x3_2_4 <= 1
 0 <= x2_4_4 <= 1
 0 <= x4_2_4 <= 1
 0 <= x2_5_4 <= 1
 0 <= x5_2_4 <= 1
 0 <= x3_4_4 <= 1
 0 <= x4_3_4 <= 1
 0 <= x3_5_4 <= 1
 0 <= x5_3_4 <= 1
 0 <= x4_5_4 <= 1
 0 <= x5_4_4 <= 1
 0 <= x0_1_5 <= 1
 0 <= x1_0_5 <= 1
 0 <= x0_2_5 <= 1
 0 <= x2_0_5 <= 1
 0 <= x0_3_5 <= 1
 0 <= x3_0_5 <= 1
 0 <= x0_4_5 <= 1
 0 <= x4_0_5 <= 1
 0 <= x0_5_5 <= 1
 0 <= x5_0_5 <= 1
 0 <= x1_2_5 <= 1
 0 <= x2_1_5 <= 1
 0 <= x1_3_5 <= 1
 0 <= x3_1_5 <= 1
 0 <= x1_4_5 <= 1
 0 <= x4_1_5 <= 1
 0 <= x1_5_5 <= 1
 0 <= x5_1_5 <= 1
 0 <= x2_3_5 <= 1
 0 <= x3_2_5 <= 1
 0 <= x2_4_5 <= 1
 0 <= x4_2_5 <= 1
 0 <= x2_5_5 <= 1
 0 <= x5_2_5 <= 1
 0 <= x3_4_5 <= 1
 0 <= x4_3_5 <= 1
 0 <= x3_5_5 <= 1
 0 <= x5_3_5 <= 1
 0 <= x4_5_5 <= 1
 0 <= x5_4_5 <= 1
 0 <= x0_1_6 <= 1
 0 <= x1_0_6 <= 1
 0 <= x0_2_6 <= 1
 0 <= x2_0_6 <= 1
 0 <= x0_3_6 <= 1
 0 <= x3_0_6 <= 1
 0 <= x0_4_6 <= 1
 0 <= x4_0_6 <= 1
 0 <= x0_5_6 <= 1
 0 <= x5_0_6 <= 1
 0 <= x1_2_6 <= 1
 0 <= x2_1_6 <= 1
 0 <= x1_3_6 <= 1
 0 <= x3_1_6 <= 1
 0 <= x1_4_6 <= 1
 0 <= x4_1_6 <= 1
 0 <= x1_5_6 <= 1
 0 <= x5_1_6 <= 1
 0 <= x2_3_6 <= 1
 0 <= x3_2_6 <= 1
 0 <= x2_4_6 <= 1
 0 <= x4_2_6 <= 1
 0 <= x2_5_6 <= 1
 0 <= x5_2_6 <= 1
 0 <= x3_4_6 <= 1
 0 <= x4_3_6 <= 1
 0 <= x3_5_6 <= 1
 0 <= x5_3_6 <= 1
 0 <= x4_5_6 <= 1
 0 <= x5_4_6 <= 1
 0 <= x0_1_7 <= 1
 0 <= x1_0_7 <= 1
 0 <= x0_2_7 <= 1
 0 <= x2_0_7 <= 1
 0 <= x0_3_7 <= 1
 0 <= x3_0_7 <= 1
 0 <= x0_4_7 <= 1
 0 <= x4_0_7 <= 1
 0 <= x0_5_7 <= 1
 0 <= x5_0_7 <= 1
 0 <= x1_2_7 <= 1
 0 <= x2_1_7 <= 1
 0 <= x1_3_7 <= 1
 0 <= x3_1_7 <= 1
 0 <= x1_4_7 <= 1
 0 <= x4_1_7 <= 1
 0 <= x1_5_7 <= 1
 0 <= x5_1_7 <= 1
 0 <= x2_3_7 <= 1
 0 <= x3_2_7 <= 1
 0 <= x2_4_7 <= 1
 0 <= x4_2_7 <= 1
 0 <= x2_5_7 <= 1
 0 <= x5_2_7 <= 1
 0 <= x3_4_7 <= 1
 0 <= x4_3_7 <= 1
 0 <= x3_5_7 <= 1
 0 <= x5_3_7 <= 1
 0 <= x4_5_7 <= 1
 0 <= x5_4_7 <= 1
 0 <= x0_1_8 <= 1
 0 <= x1_0_8 <= 1
 0 <= x0_2_8 <= 1
 0 <= x2_0_8 <= 1
 0 <= x0_3_8 <= 1
 0 <= x3_0_8 <= 1
 0 <= x0_4_8 <= 1
 0 <= x4_0_8 <= 1
 0 <= x0_5_8 <= 1
 0 <= x5_0_8 <= 1
 0 <= x1_2_8 <= 1
 0 <= x2_1_8 <= 1
 0 <= x1_3_8 <= 1
 0 <= x3_1_8 <= 1
 0 <= x1_4_8 <= 1
 0 <= x4_1_8 <= 1
 0 <= x1_5_8 <= 1
 0 <= x5_1_8 <= 1
 0 <= x2_3_8 <= 1
 0 <= x3_2_8 <= 1
 0 <= x2_4_8 <= 1
 0 <= x4_2_8 <= 1
 0 <= x2_5_8 <= 1
 0 <= x5_2_8 <= 1
 0 <= x3_4_8 <= 1
 0 <= x4_3_8 <= 1
 0 <= x3_5_8 <= 1
 0 <= x5_3_8 <= 1
 0 <= x4_5_8 <= 1
 0 <= x5_4_8 <= 1
 0 <= x0_1_9 <= 1
 0 <= x1_0_9 <= 1
 0 <= x0_2_9 <= 1
 0 <= x2_0_9 <= 1
 0 <= x0_3_9 <= 1
 0 <= x3_0_9 <= 1
 0 <= x0_4_9 <= 1
 0 <= x4_0_9 <= 1
 0 <= x0_5_9 <= 1
 0 <= x5_0_9 <= 1
 0 <= x1_2_9 <= 1
 0 <= x2_1_9 <= 1
 0 <= x1_3_9 <= 1
 0 <= x3_1_9 <= 1
 0 <= x1_4_9 <= 1
 0 <= x4_1_9 <= 1
 0 <= x1_5_9 <= 1
 0 <= x5_1_9 <= 1
 0 <= x2_3_9 <= 1
 0 <= x3_2_9 <= 1
 0 <= x2_4_9 <= 1
 0 <= x4_2_9 <= 1
 0 <= x2_5_9 <= 1
 0 <= x5_2_9 <= 1
 0 <= x3_4_9 <= 1
 0 <= x4_3_9 <= 1
 0 <= x3_5_9 <= 1
 0 <= x5_3_9 <= 1
 0 <= x4_5_9 <= 1
 0 <= x5_4_9 <= 1
 0 <= x0_0_0 <= 1
 0 <= x0_0_1 <= 1
 0 <= x0_0_2 <= 1
 0 <= x0_0_3 <= 1
 0 <= x0_0_4 <= 1
 0 <= x0_0_5 <= 1
 0 <= x0_0_6 <= 1
 0 <= x0_0_7 <= 1
 0 <= x0_0_8 <= 1
 0 <= x0_0_9 <= 1
 0 <= x1_1_0 <= 1
 0 <= x1_1_1 <= 1
 0 <= x1_1_2 <= 1
 0 <= x1_1_3 <= 1
 0 <= x1_1_4 <= 1
 0 <= x1_1_5 <= 1
 0 <= x1_1_6 <= 1
 0 <= x1_1_7 <= 1
 0 <= x1_1_8 <= 1
 0 <= x1_1_9 <= 1
 0 <= x2_2_0 <= 1
 0 <= x2_2_1 <= 1
 0 <= x2_2_2 <= 1
 0 <= x2_2_3 <= 1
 0 <= x2_2_4 <= 1
 0 <= x2_2_5 <= 1
 0 <= x2_2_6 <= 1
 0 <= x2_2_7 <= 1
 0 <= x2_2_8 <= 1
 0 <= x2_2_9 <= 1
 0 <= x3_3_0 <= 1
 0 <= x3_3_1 <= 1
 0 <= x3_3_2 <= 1
 0 <= x3_3_3 <= 1
 0 <= x3_3_4 <= 1
 0 <= x3_3_5 <= 1
 0 <= x3_3_6 <= 1
 0 <= x3_3_7 <= 1
 0 <= x3_3_8 <= 1
 0 <= x3_3_9 <= 1
 0 <= x4_4_0 <= 1
 0 <= x4_4_1 <= 1
 0 <= x4_4_2 <= 1
 0 <= x4_4_3 <= 1
 0 <= x4_4_4 <= 1
 0 <= x4_4_5 <= 1
 0 <= x4_4_6 <= 1
 0 <= x4_4_7 <= 1
 0 <= x4_4_8 <= 1
 0 <= x4_4_9 <= 1
 0 <= x5_5_0 <= 1
 0 <= x5_5_1 <= 1
 0 <= x5_5_2 <= 1
 0 <= x5_5_3 <= 1
 0 <= x5_5_4 <= 1
 0 <= x5_5_5 <= 1
 0 <= x5_5_6 <= 1
 0 <= x5_5_7 <= 1
 0 <= x5_5_8 <= 1
 0 <= x5_5_9 <= 1
Generals
 x0_1_0  x1_0_0  x0_2_0  x2_0_0  x0_3_0  x3_0_0  x0_4_0  x4_0_0  x0_5_0 
 x5_0_0  x1_2_0  x2_1_0  x1_3_0  x3_1_0  x1_4_0  x4_1_0  x1_5_0  x5_1_0 
 x2_3_0  x3_2_0  x2_4_0  x4_2_0  x2_5_0  x5_2_0  x3_4_0  x4_3_0  x3_5_0 
 x5_3_0  x4_5_0  x5_4_0  x0_1_1  x1_0_1  x0_2_1  x2_0_1  x0_3_1  x3_0_1 
 x0_4_1  x4_0_1  x0_5_1  x5_0_1  x1_2_1  x2_1_1  x1_3_1  x3_1_1  x1_4_1 
 x4_1_1  x1_5_1  x5_1_1  x2_3_1  x3_2_1  x2_4_1  x4_2_1  x2_5_1  x5_2_1 
 x3_4_1  x4_3_1  x3_5_1  x5_3_1  x4_5_1  x5_4_1  x0_1_2  x1_0_2  x0_2_2 
 x2_0_2  x0_3_2  x3_0_2  x0_4_2  x4_0_2  x0_5_2  x5_0_2  x1_2_2  x2_1_2 
 x1_3_2  x3_1_2  x1_4_2  x4_1_2  x1_5_2  x5_1_2  x2_3_2  x3_2_2  x2_4_2 
 x4_2_2  x2_5_2  x5_2_2  x3_4_2  x4_3_2  x3_5_2  x5_3_2  x4_5_2  x5_4_2 
 x0_1_3  x1_0_3  x0_2_3  x2_0_3  x0_3_3  x3_0_3  x0_4_3  x4_0_3  x0_5_3 
 x5_0_3  x1_2_3  x2_1_3  x1_3_3  x3_1_3  x1_4_3  x4_1_3  x1_5_3  x5_1_3 
 x2_3_3  x3_2_3  x2_4_3  x4_2_3  x2_5_3  x5_2_3  x3_4_3  x4_3_3  x3_5_3 
 x5_3_3  x4_5_3  x5_4_3  x0_1_4  x1_0_4  x0_2_4  x2_0_4  x0_3_4  x3_0_4 
 x0_4_4  x4_0_4  x0_5_4  x5_0_4  x1_2_4  x2_1_4  x1_3_4  x3_1_4  x1_4_4 
 x4_1_4  x1_5_4  x5_1_4  x2_3_4  x3_2_4  x2_4_4  x4_2_4  x2_5_4  x5_2_4 
 x3_4_4  x4_3_4  x3_5_4  x5_3_4  x4_5_4  x5_4_4  x0_1_5  x1_0_5  x0_2_5 
 x2_0_5  x0_3_5  x3_0_5  x0_4_5  x4_0_5  x0_5_5  x5_0_5  x1_2_5  x2_1_5 
 x1_3_5  x3_1_5  x1_4_5  x4_1_5  x1_5_5  x5_1_5  x2_3_5  x3_2_5  x2_4_5 
 x4_2_5  x2_5_5  x5_2_5  x3_4_5  x4_3_5  x3_5_5  x5_3_5  x4_5_5  x5_4_5 
 x0_1_6  x1_0_6  x0_2_6  x2_0_6  x0_3_6  x3_0_6  x0_4_6  x4_0_6  x0_5_6 
 x5_0_6  x1_2_6  x2_1_6  x1_3_6  x3_1_6  x1_4_6  x4_1_6  x1_5_6  x5_1_6 
 x2_3_6  x3_2_6  x2_4_6  x4_2_6  x2_5_6  x5_2_6  x3_4_6  x4_3_6  x3_5_6 
 x5_3_6  x4_5_6  x5_4_6  x0_1_7  x1_0_7  x0_2_7  x2_0_7  x0_3_7  x3_0_7 
 x0_4_7  x4_0_7  x0_5_7  x5_0_7  x1_2_7  x2_1_7  x1_3_7  x3_1_7  x1_4_7 
 x4_1_7  x1_5_7  x5_1_7  x2_3_7  x3_2_7  x2_4_7  x4_2_7  x2_5_7  x5_2_7 
 x3_4_7  x4_3_7  x3_5_7  x5_3_7  x4_5_7  x5_4_7  x0_1_8  x1_0_8  x0_2_8 
 x2_0_8  x0_3_8  x3_0_8  x0_4_8  x4_0_8  x0_5_8  x5_0_8  x1_2_8  x2_1_8 
 x1_3_8  x3_1_8  x1_4_8  x4_1_8  x1_5_8  x5_1_8  x2_3_8  x3_2_8  x2_4_8 
 x4_2_8  x2_5_8  x5_2_8  x3_4_8  x4_3_8  x3_5_8  x5_3_8  x4_5_8  x5_4_8 
 x0_1_9  x1_0_9  x0_2_9  x2_0_9  x0_3_9  x3_0_9  x0_4_9  x4_0_9  x0_5_9 
 x5_0_9  x1_2_9  x2_1_9  x1_3_9  x3_1_9  x1_4_9  x4_1_9  x1_5_9  x5_1_9 
 x2_3_9  x3_2_9  x2_4_9  x4_2_9  x2_5_9  x5_2_9  x3_4_9  x4_3_9  x3_5_9 
 x5_3_9  x4_5_9  x5_4_9  x0_0_0  x0_0_1  x0_0_2  x0_0_3  x0_0_4  x0_0_5 
 x0_0_6  x0_0_7  x0_0_8  x0_0_9  x1_1_0  x1_1_1  x1_1_2  x1_1_3  x1_1_4 
 x1_1_5  x1_1_6  x1_1_7  x1_1_8  x1_1_9  x2_2_0  x2_2_1  x2_2_2  x2_2_3 
 x2_2_4  x2_2_5  x2_2_6  x2_2_7  x2_2_8  x2_2_9  x3_3_0  x3_3_1  x3_3_2 
 x3_3_3  x3_3_4  x3_3_5  x3_3_6  x3_3_7  x3_3_8  x3_3_9  x4_4_0  x4_4_1 
 x4_4_2  x4_4_3  x4_4_4  x4_4_5  x4_4_6  x4_4_7  x4_4_8  x4_4_9  x5_5_0 
 x5_5_1  x5_5_2  x5_5_3  x5_5_4  x5_5_5  x5_5_6  x5_5_7  x5_5_8  x5_5_9 
End
